(set-option :produce-models true)
(set-logic all)
(define-fun s2 () int 2)
(define-fun s4 () int 0)
(define-fun s5 () int 1)
(declare-fun s0 () (seq (_ bitvec 16)))
(define-fun s1 () int (seq.len s0))
(define-fun s3 () bool (>= s1 s2))
(define-fun s6 () (seq (_ bitvec 16)) (seq.extract s0 s4 s5))
(define-fun s7 () int (- s1 s5))
(define-fun s8 () (seq (_ bitvec 16)) (seq.extract s0 s7 s5))
(define-fun s9 () bool (distinct s6 s8))
(define-fun s10 () bool (and s3 s9))
(assert s10)
(check-sat)